17	4	3
12	12	12	12	13	18	31	
0	0	0	0	0	3	1	10	9	9	3	3	2	3	4
10	9	0	0	0	1	10	3	1	10	5	3	5	6	15
8	9	4	10	0	5	4	4	7	10	7	3	7	13	17
10	4	6	10	0	5	1	6	2	4	4	3	14	15	17
2	4	0	0	0	1	6	6	7	4	4	3	8	11	13
225	5	0	0	5	6	7	5	5	6	3	3	10	11	17
225	0	10	6	0	8	7	3	10	7	2	3	9	11	14
50	1	0	6	0	4	2	6	8	8	5	2	17	17
225	0	0	4	7	4	2	6	9	4	9	2	12	15
250	0	5	0	0	3	4	5	8	1	9	2	13	17
250	3	3	0	0	2	7	6	6	2	1	2	17	17
200	0	9	0	1	9	9	7	2	8	4	2	16	17
9	0	5	6	0	3	2	5	8	9	3	1	17
9	0	0	8	0	3	2	5	8	1	8	1	17
3	0	0	8	0	7	4	2	1	1	3	1	16
6	1	0	0	1	10	3	9	5	9	10	1	17
0	0	0	0	0	5	8	8	2	9	6	0
